100
128
14
31
36
4
43
15
19
8
36
13
2
44
4
7
16
20
18
15
23
50
30
25
60
32
47
41
37
12
28
44
52
59
12
57
24
38
64
54
39
30
49
29
15
40
34
54
61
48
28
26
53
52
22
18
18
36
33
33
53
31
54
38
61
20
47
44
56
32
40
64
21
53
27
48
51
33
44
42
36
23
36
2
26
64
19
34
28
61
63
25
50
23
20
40
47
47
35
20
64
64